(declare-fun temp70_1 () (_ BitVec 64))
(declare-fun var525626 () (_ BitVec 64))
(declare-fun temp70_2 () (_ BitVec 64))
(declare-fun var787770 () (_ BitVec 64))
(declare-fun temp70_3 () (_ BitVec 64))
(declare-fun var1836346 () (_ BitVec 64))
(declare-fun temp70_4 () (_ BitVec 64))
(declare-fun var2098490 () (_ BitVec 64))
(declare-fun temp70_6 () (_ BitVec 64))
(declare-fun temp70_5 () (_ BitVec 64))
(assert (= temp70_1 #x0000000000000000))
(assert (= var525626 temp70_1))
(assert (= temp70_2 #x0000000000000000))
(assert (= var787770 temp70_2))
(assert (= temp70_3 #x0000000000000000))
(assert (= var1836346 temp70_3))
(assert (= temp70_4 #x0000000000000000))
(assert (= var2098490 temp70_4))
(assert (= temp70_6 #x0000000000000000))
(assert (= temp70_5 temp70_6))
(model-add temp70_1 () (_ BitVec 64) #x0000000000000000)
(model-add var525626 () (_ BitVec 64) #x0000000000000000)
(model-add temp70_2 () (_ BitVec 64) #x0000000000000000)
(model-add var787770 () (_ BitVec 64) #x0000000000000000)
(model-add temp70_3 () (_ BitVec 64) #x0000000000000000)
(model-add var1836346 () (_ BitVec 64) #x0000000000000000)
(model-add temp70_4 () (_ BitVec 64) #x0000000000000000)
(model-add var2098490 () (_ BitVec 64) #x0000000000000000)
(model-add temp70_6 () (_ BitVec 64) #x0000000000000000)
(model-add temp70_5 () (_ BitVec 64) #x0000000000000000)




